# SCIP version 3.1.0.1

# should the extended formulation be added in presolving?
# [type: bool, range: {TRUE,FALSE}, default: FALSE]
constraints/xor/addextendedform = TRUE

# which variable selection should be used? ('f'ractionality, 'c'oefficient, 'p'seudocost, 'g'uided, 'd'ouble, 'v'eclen)
# [type: char, range: {fcpgdv}, default: d]
heuristics/nlpdiving/varselrule = p
